job_count = 18 ;
duration = [|14, 1|12, 7|11, 8|10, 9|15, 9|16, 8|6, 7|14, 3|5, 1|11, 6|13, 2|6, 2|7, 7|9, 8|5, 7|19, 1|9, 7|2, 8|] ;
machine_count = 2 ;
cost = [|12, 33|15, 32|15, 33|19, 36|10, 37|12, 37|12, 31|16, 34|13, 32|15, 37|18, 23|18, 20|16, 24|14, 27|18, 24|17, 24|11, 27|18, 22|] ;
deadline = [45, 45, 45, 45, 45, 45, 45, 45, 45, 45, 45, 45, 45, 45, 45, 45, 45, 45] ;
release = [0, 0, 0, 0, 0, 0, 0, 0, 0, 0, 0, 0, 0, 0, 0, 0, 0, 0] ;
resource = [|4, 4|8, 8|7, 7|5, 5|5, 5|3, 3|1, 1|7, 7|3, 3|3, 3|5, 5|4, 4|3, 3|3, 3|5, 5|9, 9|7, 7|1, 1|] ;
capacities = [10, 10] ;
